bacp/03/params/inst-20-1-342897262.param
language Essence 1.3
$ generated by bacp-gen.pl with seed 342897262
$ edge probability 0.3608
$ course loads in range 3..7
letting n_courses be 99
letting n_periods be 16
letting load_per_period_lb be 10
letting load_per_period_ub be 31
letting courses_per_period_lb be 3
letting courses_per_period_ub be 9
letting course_load be function(
1 --> 5,
2 --> 5,
3 --> 7,
4 --> 6,
5 --> 5,
6 --> 4,
7 --> 6,
8 --> 4,
9 --> 5,
10 --> 5,
11 --> 3,
12 --> 4,
13 --> 4,
14 --> 7,
15 --> 6,
16 --> 4,
17 --> 4,
18 --> 5,
19 --> 5,
20 --> 4,
21 --> 6,
22 --> 5,
23 --> 6,
24 --> 7,
25 --> 5,
26 --> 4,
27 --> 4,
28 --> 7,
29 --> 5,
30 --> 7,
31 --> 3,
32 --> 6,
33 --> 6,
34 --> 4,
35 --> 3,
36 --> 6,
37 --> 6,
38 --> 5,
39 --> 6,
40 --> 6,
41 --> 3,
42 --> 5,
43 --> 7,
44 --> 3,
45 --> 3,
46 --> 7,
47 --> 5,
48 --> 4,
49 --> 6,
50 --> 4,
51 --> 6,
52 --> 5,
53 --> 3,
54 --> 5,
55 --> 3,
56 --> 7,
57 --> 4,
58 --> 5,
59 --> 3,
60 --> 3,
61 --> 5,
62 --> 3,
63 --> 4,
64 --> 5,
65 --> 6,
66 --> 3,
67 --> 7,
68 --> 5,
69 --> 3,
70 --> 3,
71 --> 7,
72 --> 3,
73 --> 4,
74 --> 3,
75 --> 6,
76 --> 3,
77 --> 6,
78 --> 3,
79 --> 5,
80 --> 5,
81 --> 7,
82 --> 3,
83 --> 5,
84 --> 5,
85 --> 5,
86 --> 7,
87 --> 4,
88 --> 5,
89 --> 5,
90 --> 4,
91 --> 4,
92 --> 3,
93 --> 6,
94 --> 6,
95 --> 5,
96 --> 7,
97 --> 5,
98 --> 6,
99 --> 6
)
letting prerequisite be relation (
(21,27),
(18,28),
(16,29),
(18,30),
(12,31),
(9,32),
(8,33),
(19,34),
(9,35),
(21,36),
(16,37),
(10,38),
(18,39),
(13,40),
(10,41),
(25,42),
(23,43),
(6,44),
(26,45),
(4,46),
(20,47),
(13,48),
(24,49),
(15,50),
(26,51),
(4,52),
(14,53),
(23,54),
(9,55),
(9,56),
(20,57),
(24,58),
(21,59),
(24,60),
(8,61),
(25,62),
(18,63),
(6,64),
(7,65),
(7,66),
(9,67),
(12,68),
(45,69),
(51,70),
(57,71),
(65,72),
(64,73),
(29,74),
(46,75),
(62,76),
(50,77),
(61,78),
(51,79),
(27,80),
(37,81),
(55,82),
(68,83),
(29,84),
(52,85),
(63,86),
(31,87),
(47,88),
(65,89),
(67,90),
(67,91),
(51,92),
(38,93),
(55,94),
(33,95),
(40,96),
(61,97),
(49,98),
(59,99),
(16,28),
(2,39),
(44,80),
(34,83),
(19,27),
(5,33),
(42,93),
(59,69),
(50,78),
(30,72),
(3,55),
(60,94),
(14,44),
(12,43),
(28,73),
(14,62),
(56,72),
(4,55),
(15,28),
(54,97),
(6,58),
(13,45),
(8,54),
(48,74),
(32,85),
(22,64),
(41,96),
(5,67),
(38,74),
(66,91),
(9,40),
(16,31),
(5,39),
(1,35),
(6,56),
(15,57),
(16,66),
(24,34),
(37,78),
(30,86),
(56,69),
(58,76),
(68,70),
(51,74),
(43,77),
(66,89),
(42,79),
(7,64),
(36,85),
(18,52),
(67,93),
(34,69),
(60,74),
(48,80),
(39,85),
(61,91),
(8,29),
(32,71),
(33,78),
(36,97),
(25,55),
(10,29),
(15,66),
(55,87),
(55,92),
(41,84),
(59,91),
(55,90),
(19,40),
(40,69),
(42,84),
(55,97),
(7,42),
(26,65),
(59,79),
(18,32),
(32,94),
(12,52),
(22,33),
(53,74),
(5,55),
(34,87),
(50,96),
(61,72),
(29,69),
(19,33),
(5,32),
(18,53),
(35,81),
(59,86),
(36,78),
(43,96),
(56,95),
(61,69),
(6,55),
(38,96),
(13,29),
(67,74),
(55,91),
(46,85),
(49,86),
(66,78),
(67,96),
(27,98),
(1,34),
(44,81),
(26,59),
(66,83),
(46,95),
(2,35),
(65,85),
(2,31),
(67,98),
(48,90),
(26,43),
(54,69),
(25,40),
(20,55),
(63,87),
(13,67),
(24,62),
(17,41),
(11,44),
(4,33),
(12,34),
(3,64),
(62,99),
(14,65),
(12,30),
(12,28),
(31,89),
(8,63),
(40,73),
(37,74),
(65,99),
(26,42),
(56,86),
(12,59),
(31,73),
(2,64),
(6,31),
(45,87),
(5,58),
(19,57),
(44,78),
(35,99),
(1,56),
(3,31),
(45,79),
(60,69),
(43,88),
(3,54),
(35,89),
(59,97),
(36,75),
(3,65),
(64,88),
(25,52),
(60,93),
(56,92),
(18,65),
(4,62),
(33,80),
(37,80),
(55,78),
(65,81),
(4,30),
(13,62),
(19,60),
(8,48),
(67,76),
(54,88),
(11,61),
(21,51),
(5,41),
(52,99),
(44,70),
(12,38),
(12,63),
(2,51),
(1,28),
(15,39),
(17,31),
(16,48),
(58,84),
(27,97),
(40,89),
(4,63),
(9,66),
(62,88),
(60,71),
(60,87),
(19,44),
(9,43),
(13,65),
(4,61),
(1,62),
(37,96),
(61,79),
(20,30),
(32,83),
(67,97),
(3,34),
(21,48),
(6,39),
(27,70),
(18,27),
(43,85),
(31,83),
(45,93),
(61,99),
(10,46),
(51,94),
(16,44),
(19,54),
(20,29),
(66,82),
(20,41),
(4,29),
(21,29),
(48,99),
(20,53),
(21,62),
(48,91),
(12,58),
(54,86),
(20,56),
(35,95),
(51,90),
(61,87),
(13,32),
(15,63),
(58,87),
(9,57),
(27,81),
(17,58),
(2,43),
(26,33),
(33,91),
(1,52),
(13,66),
(42,76),
(43,98),
(24,64),
(55,77),
(35,83),
(10,68),
(57,94),
(60,92),
(20,60),
(27,84),
(31,75),
(15,30),
(14,36),
(27,82),
(3,38),
(46,79),
(22,51),
(32,95),
(42,74),
(24,45),
(5,66),
(65,93),
(10,52),
(23,65),
(53,90),
(67,71),
(53,93),
(17,29),
(16,46),
(17,53),
(66,99),
(48,84),
(61,94),
(21,56),
(25,32),
(46,87),
(4,64),
(44,98),
(38,71),
(17,50),
(9,27),
(3,59),
(30,73),
(3,58),
(26,53),
(35,91),
(37,89),
(31,71),
(1,32),
(4,47),
(17,43),
(46,83),
(12,60),
(65,69),
(9,47),
(45,89),
(54,90),
(5,48),
(57,93),
(24,27),
(63,98),
(13,44),
(52,71),
(4,51),
(27,73),
(28,69),
(18,29),
(35,77),
(6,46),
(3,51),
(48,69),
(19,62),
(17,51),
(25,66),
(60,78),
(8,28),
(41,73),
(29,81),
(9,52),
(50,95),
(48,88),
(15,47),
(19,31),
(9,33),
(19,65),
(38,91),
(29,90),
(56,77),
(68,74),
(51,89),
(53,96),
(8,53),
(45,80),
(1,53),
(59,78),
(16,59),
(14,47),
(2,44),
(50,89),
(68,78),
(10,54),
(29,77),
(49,78),
(8,45),
(53,87),
(14,43),
(21,38),
(65,84),
(35,84),
(24,43),
(12,62),
(42,78),
(45,77),
(61,85),
(17,52),
(17,34),
(43,83),
(32,96),
(14,32),
(1,48),
(43,70),
(38,76),
(22,44),
(64,71),
(28,81),
(3,68),
(1,67),
(23,40),
(66,70),
(42,75),
(42,94),
(59,90),
(47,76),
(39,78),
(36,73),
(33,71),
(24,39),
(38,80),
(16,49),
(37,70),
(5,30),
(20,49),
(7,57),
(56,93),
(25,49),
(58,89),
(58,79),
(5,57),
(13,49),
(38,88),
(47,69),
(11,50),
(58,81),
(53,84),
(35,76),
(2,27),
(9,62),
(62,71),
(18,58),
(51,98),
(6,52),
(59,80),
(29,83),
(29,72),
(56,97),
(56,94),
(50,92),
(13,41),
(52,95),
(33,83),
(26,29),
(15,65),
(43,73),
(16,45),
(6,48),
(24,67),
(61,77),
(4,28),
(32,92),
(11,48),
(66,98),
(10,28),
(62,83),
(23,30),
(29,93),
(8,68),
(45,98),
(11,43),
(68,69),
(36,70),
(46,96),
(45,94),
(11,49),
(45,82),
(39,88),
(67,89),
(12,49),
(52,74),
(8,52),
(65,71),
(41,90),
(23,50),
(4,43),
(38,98),
(39,84),
(48,89),
(35,72),
(37,90),
(47,83),
(41,85),
(47,78),
(27,91),
(58,75),
(7,52),
(68,84),
(58,88),
(18,68),
(10,44),
(54,70),
(27,92),
(40,79),
(8,44),
(6,54),
(66,92),
(20,27),
(25,43),
(44,72),
(25,28),
(5,68),
(6,65),
(52,72),
(42,90),
(41,94),
(11,68),
(49,93),
(38,90),
(60,77),
(21,45),
(29,71),
(61,88),
(15,27),
(7,51),
(58,71),
(16,56),
(12,47),
(1,66),
(19,38),
(65,70),
(60,75),
(8,60),
(26,36),
(24,40),
(9,48),
(29,89),
(67,70),
(14,37),
(18,56),
(40,93),
(17,65),
(19,58),
(22,37),
(45,99),
(60,80),
(61,98),
(45,71),
(10,49),
(8,51),
(59,96),
(49,89),
(22,62),
(11,38),
(2,63),
(32,91),
(12,32),
(15,61),
(54,77),
(12,51),
(62,75),
(59,85),
(65,94),
(47,77),
(29,79),
(14,46),
(20,28),
(23,61),
(17,61),
(34,75),
(55,85),
(48,94),
(39,86),
(45,92),
(62,85),
(42,99),
(48,95),
(28,90),
(17,64),
(68,90),
(2,36),
(39,76),
(30,83),
(62,72),
(2,42),
(6,59),
(58,85),
(16,43),
(5,64),
(56,99),
(30,95),
(35,78),
(64,84),
(17,45),
(62,78),
(1,31),
(66,71),
(63,91),
(45,91),
(9,49),
(17,56),
(9,28),
(23,51),
(48,85),
(30,96),
(5,36),
(68,76),
(13,53),
(1,51),
(53,85),
(1,47),
(61,82),
(14,54),
(32,89),
(18,44),
(37,98),
(22,55),
(39,71),
(42,96),
(34,88),
(68,94),
(17,40),
(9,64),
(11,67),
(66,96),
(25,37),
(3,33),
(41,93),
(17,49),
(35,79),
(28,72),
(2,34),
(57,92),
(1,57),
(64,76),
(54,96),
(6,38),
(35,92),
(10,39),
(44,83),
(59,77),
(54,76),
(35,97),
(29,91),
(57,88),
(13,52),
(21,61),
(12,53),
(53,70),
(2,57),
(23,45),
(10,40),
(37,76),
(4,31),
(25,47),
(40,75),
(6,40),
(6,60),
(13,34),
(24,47),
(32,76),
(17,36),
(23,32),
(16,54),
(34,81),
(67,92),
(27,78),
(1,60),
(49,75),
(22,65),
(42,80),
(10,30),
(3,57),
(7,62),
(22,32),
(41,99),
(45,83),
(11,42),
(10,61),
(23,31),
(9,34),
(26,39),
(19,56),
(11,56),
(25,41),
(25,56),
(20,43),
(20,33),
(41,97),
(33,88),
(11,54),
(10,58),
(53,89),
(43,94),
(67,87),
(14,51),
(45,96),
(7,34),
(21,46),
(61,71),
(8,40),
(11,45),
(2,32),
(23,29),
(25,68),
(67,94),
(18,31),
(41,69),
(7,47),
(46,70),
(31,81),
(24,50),
(23,36),
(22,36),
(36,74),
(10,66),
(49,79),
(17,39),
(11,34),
(11,59),
(66,77),
(50,75),
(57,77),
(32,78),
(3,36),
(18,36),
(24,41),
(14,61),
(31,70),
(29,88),
(66,94),
(19,43),
(67,83),
(24,30),
(11,37),
(30,90),
(50,81),
(65,80),
(55,71),
(54,82),
(22,35),
(22,46),
(49,80),
(21,52),
(39,91),
(34,99),
(61,76),
(37,69),
(27,85),
(59,94),
(65,97),
(20,46),
(62,84),
(62,92),
(66,85),
(52,92),
(40,92),
(3,60),
(50,87),
(62,73),
(11,36),
(9,59),
(5,38),
(9,37),
(19,51),
(8,42),
(25,65),
(44,85),
(67,69),
(23,38),
(53,98),
(17,27),
(15,68),
(49,76),
(5,34),
(18,45),
(14,48),
(20,54),
(47,73),
(6,67),
(57,84),
(17,33),
(5,37),
(20,68),
(61,75),
(7,33),
(59,84),
(31,85),
(28,84),
(53,88),
(60,89),
(6,62),
(15,67),
(24,59),
(5,44),
(23,49),
(57,85),
(9,41),
(8,37),
(52,90),
(17,67),
(15,41),
(29,82),
(28,75),
(22,60),
(35,73),
(60,97),
(13,30),
(47,93),
(22,49),
(8,65),
(63,85),
(41,74),
(35,70),
(2,41),
(46,81),
(1,27),
(36,92),
(5,62),
(43,87),
(34,82),
(64,86),
(6,45),
(37,93),
(67,78),
(58,86),
(2,45),
(11,31),
(31,69),
(11,55),
(15,51),
(65,76)
)

