bacp/param_dec/inst-20-1-342897262.eprime-param
language ESSENCE' 1.0

letting n_courses be 99
letting n_periods be 16
letting prerequisite_RelationAsSet_Explicit_1 be
        [1, 1, 1, 1, 1, 1, 1, 1, 1, 1, 1, 1, 1, 1, 1, 1, 1, 2, 2, 2, 2, 2, 2, 2, 2, 2, 2, 2, 2, 2, 2, 2, 2, 3, 3, 3, 3,
         3, 3, 3, 3, 3, 3, 3, 3, 3, 3, 3, 4, 4, 4, 4, 4, 4, 4, 4, 4, 4, 4, 4, 4, 4, 4, 5, 5, 5, 5, 5, 5, 5, 5, 5, 5, 5,
         5, 5, 5, 5, 5, 5, 5, 5, 6, 6, 6, 6, 6, 6, 6, 6, 6, 6, 6, 6, 6, 6, 6, 6, 6, 6, 6, 7, 7, 7, 7, 7, 7, 7, 7, 7, 7,
         7, 8, 8, 8, 8, 8, 8, 8, 8, 8, 8, 8, 8, 8, 8, 8, 8, 8, 8, 9, 9, 9, 9, 9, 9, 9, 9, 9, 9, 9, 9, 9, 9, 9, 9, 9, 9,
         9, 9, 9, 9, 10, 10, 10, 10, 10, 10, 10, 10, 10, 10, 10, 10, 10, 10, 10, 10, 11, 11, 11, 11, 11, 11, 11, 11, 11,
         11, 11, 11, 11, 11, 11, 11, 11, 11, 11, 12, 12, 12, 12, 12, 12, 12, 12, 12, 12, 12, 12, 12, 12, 12, 12, 12, 12,
         13, 13, 13, 13, 13, 13, 13, 13, 13, 13, 13, 13, 13, 13, 13, 13, 14, 14, 14, 14, 14, 14, 14, 14, 14, 14, 14, 14,
         14, 14, 15, 15, 15, 15, 15, 15, 15, 15, 15, 15, 15, 15, 15, 15, 15, 16, 16, 16, 16, 16, 16, 16, 16, 16, 16, 16,
         16, 16, 16, 17, 17, 17, 17, 17, 17, 17, 17, 17, 17, 17, 17, 17, 17, 17, 17, 17, 17, 17, 17, 17, 17, 18, 18, 18,
         18, 18, 18, 18, 18, 18, 18, 18, 18, 18, 18, 18, 18, 18, 19, 19, 19, 19, 19, 19, 19, 19, 19, 19, 19, 19, 19, 19,
         19, 19, 20, 20, 20, 20, 20, 20, 20, 20, 20, 20, 20, 20, 20, 20, 20, 20, 20, 21, 21, 21, 21, 21, 21, 21, 21, 21,
         21, 21, 21, 21, 22, 22, 22, 22, 22, 22, 22, 22, 22, 22, 22, 22, 22, 22, 23, 23, 23, 23, 23, 23, 23, 23, 23, 23,
         23, 23, 23, 23, 23, 24, 24, 24, 24, 24, 24, 24, 24, 24, 24, 24, 24, 24, 24, 24, 24, 24, 25, 25, 25, 25, 25, 25,
         25, 25, 25, 25, 25, 25, 25, 25, 25, 25, 26, 26, 26, 26, 26, 26, 26, 26, 26, 26, 26, 27, 27, 27, 27, 27, 27, 27,
         27, 27, 27, 27, 27, 28, 28, 28, 28, 28, 28, 28, 29, 29, 29, 29, 29, 29, 29, 29, 29, 29, 29, 29, 29, 29, 29, 30,
         30, 30, 30, 30, 30, 30, 31, 31, 31, 31, 31, 31, 31, 31, 31, 31, 32, 32, 32, 32, 32, 32, 32, 32, 32, 32, 32, 33,
         33, 33, 33, 33, 33, 33, 34, 34, 34, 34, 34, 34, 34, 34, 35, 35, 35, 35, 35, 35, 35, 35, 35, 35, 35, 35, 35, 35,
         35, 35, 36, 36, 36, 36, 36, 36, 36, 36, 37, 37, 37, 37, 37, 37, 37, 37, 37, 37, 37, 37, 38, 38, 38, 38, 38, 38,
         38, 38, 38, 38, 39, 39, 39, 39, 39, 39, 39, 39, 40, 40, 40, 40, 40, 40, 40, 40, 41, 41, 41, 41, 41, 41, 41, 41,
         41, 41, 41, 42, 42, 42, 42, 42, 42, 42, 42, 42, 42, 42, 42, 43, 43, 43, 43, 43, 43, 43, 43, 43, 43, 44, 44, 44,
         44, 44, 44, 44, 44, 45, 45, 45, 45, 45, 45, 45, 45, 45, 45, 45, 45, 45, 45, 45, 45, 46, 46, 46, 46, 46, 46, 46,
         46, 46, 47, 47, 47, 47, 47, 47, 47, 47, 48, 48, 48, 48, 48, 48, 48, 48, 48, 48, 48, 48, 49, 49, 49, 49, 49, 49,
         49, 49, 49, 50, 50, 50, 50, 50, 50, 50, 50, 50, 51, 51, 51, 51, 51, 51, 51, 51, 52, 52, 52, 52, 52, 52, 52, 52,
         53, 53, 53, 53, 53, 53, 53, 53, 53, 53, 53, 54, 54, 54, 54, 54, 54, 54, 54, 54, 54, 55, 55, 55, 55, 55, 55, 55,
         55, 55, 55, 55, 56, 56, 56, 56, 56, 56, 56, 56, 56, 56, 57, 57, 57, 57, 57, 57, 57, 57, 58, 58, 58, 58, 58, 58,
         58, 58, 58, 58, 58, 59, 59, 59, 59, 59, 59, 59, 59, 59, 59, 59, 59, 59, 59, 60, 60, 60, 60, 60, 60, 60, 60, 60,
         60, 60, 60, 60, 61, 61, 61, 61, 61, 61, 61, 61, 61, 61, 61, 61, 61, 61, 61, 61, 61, 62, 62, 62, 62, 62, 62, 62,
         62, 62, 62, 62, 62, 63, 63, 63, 63, 63, 64, 64, 64, 64, 64, 64, 65, 65, 65, 65, 65, 65, 65, 65, 65, 65, 65, 65,
         65, 65, 66, 66, 66, 66, 66, 66, 66, 66, 66, 66, 66, 66, 66, 66, 67, 67, 67, 67, 67, 67, 67, 67, 67, 67, 67, 67,
         67, 67, 67, 67, 67, 68, 68, 68, 68, 68, 68, 68, 68, 68;
             int(1..863)]
letting prerequisite_RelationAsSet_Explicit_2 be
        [27, 28, 31, 32, 34, 35, 47, 48, 51, 52, 53, 56, 57, 60, 62, 66, 67, 27, 31, 32, 34, 35, 36, 39, 41, 42, 43, 44,
         45, 51, 57, 63, 64, 31, 33, 34, 36, 38, 51, 54, 55, 57, 58, 59, 60, 64, 65, 68, 28, 29, 30, 31, 33, 43, 46, 47,
         51, 52, 55, 61, 62, 63, 64, 30, 32, 33, 34, 36, 37, 38, 39, 41, 44, 48, 55, 57, 58, 62, 64, 66, 67, 68, 31, 38,
         39, 40, 44, 45, 46, 48, 52, 54, 55, 56, 58, 59, 60, 62, 64, 65, 67, 33, 34, 42, 47, 51, 52, 57, 62, 64, 65, 66,
         28, 29, 33, 37, 40, 42, 44, 45, 48, 51, 52, 53, 54, 60, 61, 63, 65, 68, 27, 28, 32, 33, 34, 35, 37, 40, 41, 43,
         47, 48, 49, 52, 55, 56, 57, 59, 62, 64, 66, 67, 28, 29, 30, 38, 39, 40, 41, 44, 46, 49, 52, 54, 58, 61, 66, 68,
         31, 34, 36, 37, 38, 42, 43, 44, 45, 48, 49, 50, 54, 55, 56, 59, 61, 67, 68, 28, 30, 31, 32, 34, 38, 43, 47, 49,
         51, 52, 53, 58, 59, 60, 62, 63, 68, 29, 30, 32, 34, 40, 41, 44, 45, 48, 49, 52, 53, 62, 65, 66, 67, 32, 36, 37,
         43, 44, 46, 47, 48, 51, 53, 54, 61, 62, 65, 27, 28, 30, 39, 41, 47, 50, 51, 57, 61, 63, 65, 66, 67, 68, 28, 29,
         31, 37, 43, 44, 45, 46, 48, 49, 54, 56, 59, 66, 27, 29, 31, 33, 34, 36, 39, 40, 41, 43, 45, 49, 50, 51, 52, 53,
         56, 58, 61, 64, 65, 67, 27, 28, 29, 30, 31, 32, 36, 39, 44, 45, 52, 53, 56, 58, 63, 65, 68, 27, 31, 33, 34, 38,
         40, 43, 44, 51, 54, 56, 57, 58, 60, 62, 65, 27, 28, 29, 30, 33, 41, 43, 46, 47, 49, 53, 54, 55, 56, 57, 60, 68,
         27, 29, 36, 38, 45, 46, 48, 51, 52, 56, 59, 61, 62, 32, 33, 35, 36, 37, 44, 46, 49, 51, 55, 60, 62, 64, 65, 29,
         30, 31, 32, 36, 38, 40, 43, 45, 49, 50, 51, 54, 61, 65, 27, 30, 34, 39, 40, 41, 43, 45, 47, 49, 50, 58, 59, 60,
         62, 64, 67, 28, 32, 37, 40, 41, 42, 43, 47, 49, 52, 55, 56, 62, 65, 66, 68, 29, 33, 36, 39, 42, 43, 45, 51, 53,
         59, 65, 70, 73, 78, 80, 81, 82, 84, 85, 91, 92, 97, 98, 69, 72, 73, 75, 81, 84, 90, 69, 71, 72, 74, 77, 79, 81,
         82, 83, 84, 88, 89, 90, 91, 93, 72, 73, 83, 86, 90, 95, 96, 69, 70, 71, 73, 75, 81, 83, 85, 87, 89, 71, 76, 78,
         83, 85, 89, 91, 92, 94, 95, 96, 71, 78, 80, 83, 88, 91, 95, 69, 75, 81, 82, 83, 87, 88, 99, 70, 72, 73, 76, 77,
         78, 79, 81, 83, 84, 89, 91, 92, 95, 97, 99, 70, 73, 74, 75, 78, 85, 92, 97, 69, 70, 74, 76, 78, 80, 81, 89, 90,
         93, 96, 98, 71, 74, 76, 80, 88, 90, 91, 93, 96, 98, 71, 76, 78, 84, 85, 86, 88, 91, 69, 73, 75, 79, 89, 92, 93,
         96, 69, 73, 74, 84, 85, 90, 93, 94, 96, 97, 99, 74, 75, 76, 78, 79, 80, 84, 90, 93, 94, 96, 99, 70, 73, 77, 83,
         85, 87, 88, 94, 96, 98, 70, 72, 78, 80, 81, 83, 85, 98, 69, 71, 77, 79, 80, 82, 83, 87, 89, 91, 92, 93, 94, 96,
         98, 99, 70, 75, 79, 81, 83, 85, 87, 95, 96, 69, 73, 76, 77, 78, 83, 88, 93, 69, 74, 80, 84, 85, 88, 89, 90, 91,
         94, 95, 99, 75, 76, 78, 79, 80, 86, 89, 93, 98, 75, 77, 78, 81, 87, 89, 92, 95, 96, 70, 74, 79, 89, 90, 92, 94,
         98, 71, 72, 74, 85, 90, 92, 95, 99, 70, 74, 84, 85, 87, 88, 89, 90, 93, 96, 98, 69, 70, 76, 77, 82, 86, 88, 90,
         96, 97, 71, 77, 78, 82, 85, 87, 90, 91, 92, 94, 97, 69, 72, 77, 86, 92, 93, 94, 95, 97, 99, 71, 77, 84, 85, 88,
         92, 93, 94, 71, 75, 76, 79, 81, 84, 85, 86, 87, 88, 89, 69, 77, 78, 79, 80, 84, 85, 86, 90, 91, 94, 96, 97, 99,
         69, 71, 74, 75, 77, 78, 80, 87, 89, 92, 93, 94, 97, 69, 71, 72, 75, 76, 77, 78, 79, 82, 85, 87, 88, 91, 94, 97,
         98, 99, 71, 72, 73, 75, 76, 78, 83, 84, 85, 88, 92, 99, 85, 86, 87, 91, 98, 71, 73, 76, 84, 86, 88, 69, 70, 71,
         72, 76, 80, 81, 84, 85, 89, 93, 94, 97, 99, 70, 71, 77, 78, 82, 83, 85, 89, 91, 92, 94, 96, 98, 99, 69, 70, 71,
         74, 76, 78, 83, 87, 89, 90, 91, 92, 93, 94, 96, 97, 98, 69, 70, 74, 76, 78, 83, 84, 90, 94;
             int(1..863)]
letting course_load_Function1D be
        [5, 5, 7, 6, 5, 4, 6, 4, 5, 5, 3, 4, 4, 7, 6, 4, 4, 5, 5, 4, 6, 5, 6, 7, 5, 4, 4, 7, 5, 7, 3, 6, 6, 4, 3, 6, 6,
         5, 6, 6, 3, 5, 7, 3, 3, 7, 5, 4, 6, 4, 6, 5, 3, 5, 3, 7, 4, 5, 3, 3, 5, 3, 4, 5, 6, 3, 7, 5, 3, 3, 7, 3, 4, 3,
         6, 3, 6, 3, 5, 5, 7, 3, 5, 5, 5, 7, 4, 5, 5, 4, 4, 3, 6, 6, 5, 7, 5, 6, 6;
             int(1..99)]
letting load_per_period_ub be 31
letting load_per_period_lb be 10
letting courses_per_period_ub be 9
letting courses_per_period_lb be 3
letting fin1 be 863
letting fin2 be 99
letting fin3 be 7
